! HF cc-pVDZ

*xyzfile 0 1 water_libint.xyz 
